(set-info :smt-lib-version 2.6)
(set-logic QF_UFLRA)
(set-info :source |
MathSat group

|)
(set-info :category "random")
(set-info :status sat)
(declare-fun x0 () Real)
(declare-fun x1 () Real)
(declare-fun x2 () Real)
(declare-fun x3 () Real)
(declare-fun x4 () Real)
(declare-fun x5 () Real)
(declare-fun x6 () Real)
(declare-fun x7 () Real)
(declare-fun x8 () Real)
(declare-fun x9 () Real)
(declare-fun x10 () Real)
(declare-fun x11 () Real)
(declare-fun x12 () Real)
(declare-fun x13 () Real)
(declare-fun x14 () Real)
(declare-fun x15 () Real)
(declare-fun x16 () Real)
(declare-fun x17 () Real)
(declare-fun x18 () Real)
(declare-fun x19 () Real)
(declare-fun x20 () Real)
(declare-fun x21 () Real)
(declare-fun x22 () Real)
(declare-fun x23 () Real)
(declare-fun x24 () Real)
(declare-fun x25 () Real)
(declare-fun x26 () Real)
(declare-fun x27 () Real)
(declare-fun x28 () Real)
(declare-fun x29 () Real)
(declare-fun x30 () Real)
(declare-fun x31 () Real)
(declare-fun x32 () Real)
(declare-fun x33 () Real)
(declare-fun x34 () Real)
(declare-fun x35 () Real)
(declare-fun x36 () Real)
(declare-fun x37 () Real)
(declare-fun x38 () Real)
(declare-fun x39 () Real)
(declare-fun x40 () Real)
(declare-fun x41 () Real)
(declare-fun x42 () Real)
(declare-fun x43 () Real)
(declare-fun x44 () Real)
(declare-fun x45 () Real)
(declare-fun x46 () Real)
(declare-fun x47 () Real)
(declare-fun x48 () Real)
(declare-fun x49 () Real)
(declare-fun f0_1 (Real) Real)
(declare-fun f0_2 (Real Real) Real)
(declare-fun f0_3 (Real Real Real) Real)
(declare-fun f0_4 (Real Real Real Real) Real)
(declare-fun P0 () Bool)
(declare-fun P1 () Bool)
(declare-fun P2 () Bool)
(declare-fun P3 () Bool)
(declare-fun P4 () Bool)
(declare-fun P5 () Bool)
(declare-fun P6 () Bool)
(declare-fun P7 () Bool)
(declare-fun P8 () Bool)
(declare-fun P9 () Bool)
(declare-fun P10 () Bool)
(declare-fun P11 () Bool)
(declare-fun P12 () Bool)
(declare-fun P13 () Bool)
(declare-fun P14 () Bool)
(declare-fun P15 () Bool)
(declare-fun P16 () Bool)
(declare-fun P17 () Bool)
(declare-fun P18 () Bool)
(declare-fun P19 () Bool)
(declare-fun P20 () Bool)
(declare-fun P21 () Bool)
(declare-fun P22 () Bool)
(declare-fun P23 () Bool)
(declare-fun P24 () Bool)
(declare-fun P25 () Bool)
(declare-fun P26 () Bool)
(declare-fun P27 () Bool)
(declare-fun P28 () Bool)
(declare-fun P29 () Bool)
(declare-fun P30 () Bool)
(declare-fun P31 () Bool)
(declare-fun P32 () Bool)
(declare-fun P33 () Bool)
(declare-fun P34 () Bool)
(declare-fun P35 () Bool)
(declare-fun P36 () Bool)
(declare-fun P37 () Bool)
(declare-fun P38 () Bool)
(declare-fun P39 () Bool)
(declare-fun P40 () Bool)
(declare-fun P41 () Bool)
(declare-fun P42 () Bool)
(declare-fun P43 () Bool)
(declare-fun P44 () Bool)
(declare-fun P45 () Bool)
(declare-fun P46 () Bool)
(declare-fun P47 () Bool)
(declare-fun P48 () Bool)
(declare-fun P49 () Bool)
(assert (let ((?v_38 (<= (- (+ (* 20 x9) (* 12 x5)) (* 16 x12)) 12)) (?v_106 (* 13 x39))) (let ((?v_146 (< (- (+ ?v_106 (* 6 x32)) (* 9 x33)) 1)) (?v_91 (* 14 x37))) (let ((?v_216 (< (- (- ?v_91 (* 27 x38)) (* 9 x42)) 10)) (?v_83 (< (- (+ (* 11 x30) (* 18 x4)) (* 9 x3)) 21)) (?v_184 (<= (- (+ (* 4 x10) (* 4 x2)) (* 27 x1)) 4)) (?v_102 (* 26 x19)) (?v_24 (* 25 x42)) (?v_69 (< (- (+ (* 23 x24) (* 11 x27)) (* 21 x9)) 22)) (?v_130 (f0_1 x34))) (let ((?v_223 (= x17 ?v_130)) (?v_214 (= (f0_2 x27 x45) (f0_2 x16 x24))) (?v_32 (distinct (f0_1 x3) (f0_2 x4 x41))) (?v_230 (distinct (f0_1 x12) (f0_2 x3 x19))) (?v_0 (f0_1 x20))) (let ((?v_177 (distinct x5 ?v_0)) (?v_82 (= (f0_1 x26) ?v_0)) (?v_59 (f0_1 x22))) (let ((?v_35 (= ?v_59 (f0_2 x32 x22))) (?v_122 (= (f0_1 x19) (f0_2 x15 x16))) (?v_53 (= (f0_2 x22 x19) x43)) (?v_93 (f0_1 x5))) (let ((?v_11 (distinct x12 ?v_93)) (?v_153 (= (f0_1 x41) (f0_2 x5 x19))) (?v_70 (distinct (f0_1 x9) x41)) (?v_17 (f0_1 x25))) (let ((?v_225 (distinct (f0_2 x30 x35) ?v_17)) (?v_10 (= (f0_2 x20 x29) (f0_1 x7))) (?v_7 (distinct x21 ?v_0)) (?v_54 (= x48 (f0_2 x37 x27))) (?v_183 (= x2 x32)) (?v_211 (= (f0_2 x44 x28) x27)) (?v_89 (= x13 ?v_59)) (?v_61 (distinct (f0_1 x2) (f0_1 x21))) (?v_131 (distinct (f0_2 x46 x28) (f0_2 x32 x16))) (?v_239 (distinct (f0_1 x6) x2)) (?v_71 (= ?v_130 (f0_2 x19 x8))) (?v_34 (distinct x28 (f0_2 x49 x38))) (?v_66 (= (f0_1 x42) (f0_2 x28 x14))) (?v_33 (= (f0_2 x48 x21) x47)) (?v_27 (distinct (f0_2 x42 x7) (f0_2 x20 x5))) (?v_42 (distinct (f0_1 x16) x22)) (?v_95 (= x25 (f0_2 x2 x31))) (?v_96 (= x15 x27)) (?v_105 (distinct x26 (f0_2 x25 x28))) (?v_117 (distinct (f0_2 x7 x20) x17)) (?v_45 (= x15 (f0_2 x27 x38))) (?v_23 (= x15 x20)) (?v_68 (= (f0_1 x44) x30)) (?v_245 (distinct x17 (f0_2 x2 x35))) (?v_132 (= x9 ?v_93)) (?v_100 (f0_1 x15))) (let ((?v_44 (= (f0_1 x35) ?v_100)) (?v_30 (distinct x13 (f0_2 x33 x48))) (?v_87 (distinct (f0_2 x40 x46) (f0_2 x9 x25))) (?v_143 (distinct x41 (f0_1 x28))) (?v_137 (= (f0_2 x27 x6) (f0_2 x0 x23))) (?v_55 (= ?v_17 (f0_2 x41 x41))) (?v_40 (= x14 (f0_2 x4 x17))) (?v_116 (= ?v_100 (f0_1 x27))) (?v_215 (= x37 (f0_1 x47))) (?v_148 (= (f0_2 x47 x43) (f0_2 x0 x35))) (?v_109 (distinct x34 (f0_2 x40 x36))) (?v_144 (= x6 x2)) (?v_157 (distinct (f0_1 x17) x7)) (?v_20 (not P23)) (?v_2 (not ?v_42)) (?v_39 (not ?v_230))) (let ((?v_4 (not ?v_40)) (?v_56 (not P37)) (?v_207 (not ?v_239)) (?v_6 (not ?v_177)) (?v_128 (not ?v_54)) (?v_13 (not ?v_7)) (?v_29 (not P10)) (?v_86 (not ?v_215)) (?v_37 (not ?v_70)) (?v_62 (not ?v_27)) (?v_251 (not P16)) (?v_21 (not ?v_30)) (?v_110 (not P1)) (?v_135 (not ?v_137)) (?v_58 (not P9)) (?v_14 (not P7)) (?v_181 (not P4)) (?v_199 (not ?v_68)) (?v_46 (not P18)) (?v_15 (not ?v_55)) (?v_112 (not ?v_23)) (?v_118 (not P2)) (?v_79 (not P14)) (?v_36 (not ?v_45)) (?v_101 (not ?v_131)) (?v_203 (not ?v_11)) (?v_50 (not P11)) (?v_22 (not P49)) (?v_43 (not P29)) (?v_255 (not ?v_225)) (?v_48 (not P32)) (?v_81 (not P30)) (?v_136 (not ?v_69)) (?v_57 (not ?v_35)) (?v_227 (not P5)) (?v_154 (not P8)) (?v_178 (not P19)) (?v_160 (not ?v_34)) (?v_150 (not ?v_33)) (?v_64 (not ?v_157)) (?v_193 (not ?v_183)) (?v_186 (not ?v_122)) (?v_84 (not ?v_38)) (?v_134 (not P41)) (?v_126 (not P17)) (?v_254 (not P12)) (?v_47 (not ?v_44)) (?v_140 (not ?v_53)) (?v_141 (not ?v_148)) (?v_108 (not ?v_89)) (?v_168 (not ?v_82)) (?v_78 (not P13)) (?v_74 (not ?v_61)) (?v_195 (not ?v_87)) (?v_152 (not ?v_105)) (?v_185 (not ?v_71)) (?v_155 (not P40)) (?v_94 (not P43)) (?v_85 (not P26)) (?v_187 (not P42)) (?v_151 (not ?v_211)) (?v_164 (not ?v_245)) (?v_121 (not ?v_83)) (?v_125 (not P38)) (?v_247 (not P25)) (?v_210 (not ?v_216)) (?v_197 (not P34)) (?v_209 (not ?v_143)) (?v_229 (not P47)) (?v_228 (not ?v_95)) (?v_165 (not P46)) (?v_171 (not P6)) (?v_111 (not P44)) (?v_173 (not P21)) (?v_233 (not ?v_144)) (?v_189 (not ?v_146)) (?v_172 (not ?v_109)) (?v_256 (not ?v_32)) (?v_129 (not P31)) (?v_205 (not P15)) (?v_219 (not ?v_223)) (?v_192 (not ?v_184)) (?v_249 (not P39)) (?v_248 (not ?v_96)) (?v_175 (not P27)) (?v_190 (not ?v_132)) (?v_246 (not ?v_153)) (?v_200 (not P22)) (?v_191 (not P35)) (?v_221 (not P45)) (?v_179 (not P24)) (?v_237 (not ?v_116)) (?v_217 (not P3)) (?v_224 (not ?v_214)) (?v_222 (not P0)) (?v_252 (not ?v_66)) (?v_258 (not P33)) (?v_238 (not ?v_10)) (?v_240 (not ?v_117)) (?v_244 (not P36)) (?v_253 (not P48)) (?v_257 (or ?v_177 P33)) (?v_1 (<= (+ (* 24 x30) (* 19 x15) (* 9 x17)) 12))) (let ((?v_18 (not ?v_1)) (?v_75 (< (+ (- 0 (* 7 x7)) (* 12 x17)) 14)) (?v_41 (< (+ (* 3 x25) (* 26 x1) x48) 6))) (let ((?v_103 (not ?v_41)) (?v_139 (< (+ (* 20 x16) (* 15 x32) (* 8 x22)) 20))) (let ((?v_198 (not ?v_139)) (?v_169 (= (+ (* 25 x6) (* 12 x23)) 12))) (let ((?v_90 (not ?v_169)) (?v_176 (< (+ (* 16 x17) (* 27 x21) (* 12 x42)) 28))) (let ((?v_104 (not ?v_176)) (?v_159 (not ?v_75)) (?v_107 (< (- (* 6 x31) (* 18 x34)) 0)) (?v_119 (distinct (- (- (* 22 x1) x23) (* 11 x19)) 5))) (let ((?v_241 (not ?v_119)) (?v_220 (not ?v_107)) (?v_19 (<= (+ (- (* (- 21) x42) (* 17 x33)) (* 13 x40)) (- 17))) (?v_51 (distinct (+ (* (- 8) x18) (* 5 x12) (* 2 x15)) (- 1))) (?v_114 (= (- (- (* 9 x13) (* 14 x43)) (* 8 x19)) (- 21)))) (let ((?v_149 (not ?v_114)) (?v_63 (<= (+ (* 16 x20) ?v_91 (* 2 x13)) (- 11))) (?v_5 (<= (- (- (* 8 x33) 0) (* 10 x49)) (- 16))) (?v_3 (<= (+ (* (- 26) x46) (* 7 x3) (* 27 x34)) (- 7)))) (let ((?v_162 (not ?v_3)) (?v_25 (< (+ (- (* (- 10) x9) (* 18 x3)) (* 19 x21)) 10)) (?v_9 (<= (+ (- (* (- 24) x30) (* 3 x12)) (* 18 x48)) 22)) (?v_8 (= (- (- (* 24 x47) (* 8 x17)) 0) (- 15)))) (let ((?v_76 (not ?v_8)) (?v_28 (not ?v_5)) (?v_26 (distinct (- (* (- 4) x5) x24) 3))) (let ((?v_52 (not ?v_26)) (?v_113 (< (- (+ (* 25 x39) (* 25 x15)) (* 24 x3)) (- 22)))) (let ((?v_16 (not ?v_113)) (?v_49 (< (- (+ (* (- 21) x7) (* 13 x28)) (* 16 x4)) (- 15))) (?v_142 (distinct (- (+ (* (- 25) x9) (* 11 x21)) (* 23 x38)) 22))) (let ((?v_218 (not ?v_142)) (?v_60 (<= (- (+ (* (- 11) x2) (* 12 x34)) (* 15 x23)) (- 20))) (?v_12 (<= (+ (* (- 7) x48) (* 21 x48) (* 18 x18)) 24))) (let ((?v_158 (not ?v_12)) (?v_31 (= (+ x45 (* 6 x13)) (- 3))) (?v_92 (= (+ (- (* (- 4) x1) ?v_24) (* 14 x6)) 24))) (let ((?v_80 (not ?v_92)) (?v_156 (<= (- (- (* (- 12) x29) 0) (* 16 x41)) 19))) (let ((?v_123 (not ?v_156)) (?v_133 (= (+ (- ?v_24 (* 5 x6)) (* 18 x1)) (- 26)))) (let ((?v_127 (not ?v_133)) (?v_147 (not ?v_25)) (?v_115 (= (- (- (* (- 7) x30) (* 27 x5)) x17) 20))) (let ((?v_167 (not ?v_115)) (?v_212 (< (+ (- (* (- 9) x16) 0) ?v_106) (- 8)))) (let ((?v_72 (not ?v_212)) (?v_124 (<= (- (* (- 8) x38) (* 25 x27)) 14))) (let ((?v_65 (not ?v_124)) (?v_235 (<= (- (- (* 10 x13) (* 10 x6)) (* 16 x16)) (- 5)))) (let ((?v_174 (not ?v_235)) (?v_182 (distinct (+ ?v_102 (* 21 x1) (* 6 x35)) (- 11))) (?v_202 (= (- (+ (* (- 5) x2) (* 5 x44)) (* 2 x24)) (- 5)))) (let ((?v_226 (not ?v_202)) (?v_77 (not ?v_19)) (?v_99 (not ?v_63)) (?v_161 (< (+ (* 11 x37) x40) (- 3)))) (let ((?v_67 (not ?v_161)) (?v_163 (<= (- (* (- 9) x13) (* 22 x24)) (- 22))) (?v_73 (< (- (- (* (- 20) x38) (* 19 x4)) (* 18 x43)) (- 18))) (?v_97 (not ?v_51)) (?v_98 (<= (+ (- (* (- 8) x13) (* 4 x29)) (* 6 x21)) 23)) (?v_138 (<= (- (- (* 17 x12) (* 22 x43)) (* 9 x10)) (- 6)))) (let ((?v_234 (not ?v_138)) (?v_88 (<= (- (- (* 19 x20) (* 14 x11)) (* 10 x22)) (- 21)))) (let ((?v_145 (not ?v_88)) (?v_201 (not ?v_73)) (?v_188 (not ?v_49)) (?v_196 (not ?v_60)) (?v_120 (< (+ (- (* (- 26) x18) ?v_102) (* 3 x11)) 11)) (?v_236 (<= (+ (* (- 5) x25) (* 6 x25) (* 22 x6)) 25))) (let ((?v_231 (not ?v_236)) (?v_166 (<= (+ (- (* (- 16) x35) (* 21 x27)) (* 3 x42)) 20)) (?v_180 (< (+ (- (* (- 2) x31) (* 19 x12)) (* 15 x13)) (- 17))) (?v_194 (not ?v_98))) (let ((?v_170 (not ?v_166)) (?v_208 (not ?v_9)) (?v_204 (not ?v_180)) (?v_242 (not ?v_182)) (?v_250 (<= (- (* 11 x36) (* 8 x5)) (- 15)))) (let ((?v_206 (not ?v_250)) (?v_232 (not ?v_120)) (?v_213 (not ?v_31)) (?v_243 (not ?v_163))) (and (and (and (and (and (and (and (and (and (and (and (and (and (and (and (and (and (and (and (and (and (and (and (and (and (and (and (and (and (and (and (and (and (and (and (and (and (and (and (and (and (and (and (and (and (and (and (and (and (and (and (and (and (and (and (and (and (and (and (and (and (and (and (and (and (and (and (and (and (and (and (and (and (and (and (and (and (and (and (and (and (and (and (and (and (and (and (and (and (and (and (and (and (and (and (and (and (and (and (and (and (and (and (and (and (and (and (and (and (and (and (and (and (and (and (and (and (and (and (and (and (and (and (and (and (and (and (and (and (and (and (and (and (and (and (and (and (and (and (and (and (and (and (and (and (and (and (and (and (and (and (and (and (and (and (and (and (and (and (and (and (and (and (and (and (and (and (and (and (and (and (and (and (and (and (and (and (and (and (and (and (and (and (and (and (and (and (and (and (and (and (and (and (and (and (and (and (and (and (and (and (and (and (and (and (and (and (and (and (and (and (and (and (and (and (and (and (and (and (and (and (and (and (and (and (and (and (and (and (and (and (and (and (and (and (and (and (and (and (and (and (and (and (and (and (and (and (and (and (and (and (and (and (and (and (and (and (and (and (and (and (and (and (and (and (and (and (and (and (and (and (and (and (and (and (and (and (and (and (and (and (and (and (and (and (and (and (and (and (and (and (and (and (and (and (and (and (and (and (and (and (and (and (and (and (and (and (and (and (and (and (and (and (and (and (and (and (and (and (and (and (and (and (and (and (and (and (and (and (and (and (and (and (and (and (and (and (and (and (and (and (and (and (and (and (and (and (and (and (and (and (and (and (and (and (and (and (and (and (and (and (and (and (and (and (and (and (and (and (and (and (and (and (and (and (and (and (and (and (and (and (and (and (and (and (and (and (and (and (and (and (and (and (and (and (and (and (and (and (and (and (and (and (and (and (and (and (and (and (and (and (and (and (and (and (and (and (and (and (and (and (and (and (and (and (and (and (and (and (and (and (and (and (and (and (and (and (and (and (and (and (and (and (and (and (and (and (and (and (and (and (and (and (and (and (and (and (and (and (and (and (and (and (and (and (and (and (and (and (and (and (and (and (and (and (and (and (and (and (and (and (and (and (and (and (and (and (and (and (and (and (and (and (and (and (and (and (and (and (and (and (and (and (and (and (and (and (and (and (and (and (and (and (and (and (and (and (and (and (and (and (and (and (and (and (and (and (and (and (and (and (and (and (and (and (and (and (and (and (and (and (and (and (and (and (and (and (and (and (and (and (and (and (and (and (and (and (and (and (and (and (and (and (and (and (and (and (and (and (and (and (and (and (and (and (and (and (and (and (and (and (and (and (and (and (and (and (and (and (and (and (and (and (and (and (and (and (and (and (or (or ?v_20 ?v_19) ?v_44) (or (or ?v_51 ?v_2) ?v_39)) (or (or ?v_4 ?v_149) P8)) (or (or ?v_63 P10) ?v_95)) (or (or P35 ?v_56) P12)) (or (or ?v_207 P30) P41)) (or (or ?v_6 (not P28)) ?v_128)) (or (or ?v_13 ?v_18) ?v_29)) (or (or ?v_1 ?v_86) ?v_2)) (or (or ?v_5 ?v_37) ?v_62)) (or (or ?v_251 ?v_38) ?v_3)) (or (or ?v_162 ?v_11) ?v_21)) (or (or ?v_4 ?v_110) ?v_25)) (or (or P9 ?v_9) ?v_76)) (or (or ?v_135 ?v_28) ?v_58)) (or (or ?v_6 ?v_52) ?v_75)) (or (or P45 ?v_14) ?v_16)) (or (or ?v_181 P20) ?v_199)) (or (or ?v_49 ?v_46) ?v_7)) (or (or ?v_117 ?v_218) ?v_10)) (or (or ?v_15 ?v_8) ?v_60)) (or (or ?v_158 ?v_9) P19)) (or (or P27 ?v_112) ?v_61)) (or (or ?v_118 ?v_41) P39)) (or (or ?v_79 ?v_10) ?v_36)) (or (or ?v_101 ?v_96) ?v_203)) (or (or ?v_50 P32) ?v_12)) (or (or ?v_53 ?v_13) ?v_31)) (or (or P32 P43) ?v_80)) (or (or ?v_22 P13) ?v_43)) (or (or P8 ?v_14) ?v_15)) (or (or ?v_16 ?v_66) ?v_255)) (or (or ?v_18 ?v_33) ?v_48)) (or (or ?v_9 ?v_81) ?v_19)) (or (or ?v_136 ?v_123) ?v_20)) (or (or ?v_21 ?v_22) ?v_23)) (or (or ?v_127 ?v_57) ?v_147)) (or (or P29 ?v_227) ?v_167)) (or (or P26 ?v_154) ?v_178)) (or (or ?v_26 P44) P14)) (or (or P21 ?v_27) P3)) (or (or ?v_160 P38) ?v_28)) (or (or ?v_29 ?v_30) P19)) (or (or ?v_83 ?v_32) ?v_16)) (or (or ?v_72 ?v_31) ?v_32)) (or (or ?v_150 ?v_2) ?v_34)) (or (or ?v_64 ?v_14) ?v_35)) (or (or ?v_193 ?v_186) ?v_36)) (or (or P37 P15) ?v_37)) (or (or ?v_84 P32) P5)) (or (or ?v_39 ?v_134) ?v_36)) (or (or ?v_40 ?v_126) ?v_103)) (or (or P45 P39) P41)) (or (or ?v_254 ?v_42) ?v_43)) (or (or ?v_47 ?v_45) ?v_46)) (or (or ?v_12 ?v_47) ?v_48)) (or (or ?v_49 ?v_23) ?v_50)) (or (or ?v_198 ?v_35) ?v_51)) (or (or P24 P10) ?v_52)) (or (or ?v_140 P41) ?v_36)) (or (or ?v_65 ?v_54) ?v_174)) (or (or ?v_38 P43) ?v_182)) (or (or ?v_55 P12) ?v_56)) (or (or ?v_141 ?v_22) ?v_57)) (or (or P24 ?v_226) P16)) (or (or ?v_58 ?v_108) ?v_60)) (or (or ?v_168 ?v_6) P24)) (or (or P15 P10) ?v_77)) (or (or ?v_78 P36) ?v_26)) (or (or ?v_71 ?v_74) P13)) (or (or ?v_62 ?v_99) ?v_67)) (or (or ?v_51 P27) ?v_64)) (or (or ?v_65 ?v_37) ?v_195)) (or (or ?v_27 ?v_163) ?v_66)) (or (or ?v_67 ?v_68) ?v_69)) (or (or ?v_109 ?v_73) ?v_152)) (or (or ?v_14 ?v_30) ?v_70)) (or (or ?v_185 P17) ?v_3)) (or (or ?v_72 ?v_73) ?v_155)) (or (or ?v_97 ?v_29) ?v_26)) (or (or ?v_74 ?v_46) ?v_98)) (or (or ?v_75 ?v_18) ?v_76)) (or (or ?v_94 ?v_85) ?v_187)) (or (or P37 ?v_77) P12)) (or (or ?v_234 ?v_11) ?v_90)) (or (or ?v_71 P10) P6)) (or (or ?v_78 P24) P18)) (or (or ?v_79 P24) ?v_145)) (or (or ?v_80 ?v_81) ?v_82)) (or (or ?v_151 ?v_164) P48)) (or (or ?v_121 ?v_104) P0)) (or (or ?v_84 ?v_75) ?v_85)) (or (or ?v_125 ?v_86) ?v_87)) (or (or ?v_25 ?v_72) ?v_4)) (or (or ?v_201 ?v_88) ?v_188)) (or (or ?v_247 ?v_77) ?v_89)) (or (or ?v_71 ?v_90) ?v_210)) (or (or ?v_92 ?v_197) ?v_76)) (or (or ?v_209 ?v_229) ?v_132)) (or (or ?v_53 ?v_75) ?v_94)) (or (or ?v_228 ?v_96) ?v_28)) (or (or P21 ?v_2) ?v_97)) (or (or ?v_165 ?v_27) ?v_171)) (or (or ?v_98 ?v_196) P49)) (or (or ?v_99 ?v_116) ?v_111)) (or (or ?v_101 P28) P36)) (or (or ?v_120 ?v_14) ?v_101)) (or (or ?v_173 P14) ?v_103)) (or (or ?v_104 ?v_76) ?v_30)) (or (or ?v_105 ?v_159) ?v_107)) (or (or ?v_233 ?v_1) P33)) (or (or ?v_189 ?v_107) ?v_108)) (or (or ?v_20 ?v_231) P37)) (or (or ?v_97 ?v_172) P8)) (or (or ?v_36 ?v_72) ?v_44)) (or (or ?v_7 ?v_5) ?v_14)) (or (or P45 ?v_90) ?v_38)) (or (or ?v_110 ?v_111) ?v_56)) (or (or ?v_112 ?v_75) ?v_54)) (or (or ?v_77 P26) ?v_113)) (or (or ?v_114 ?v_115) ?v_116)) (or (or ?v_117 ?v_118) ?v_119)) (or (or ?v_241 ?v_120) ?v_54)) (or (or ?v_4 ?v_42) ?v_10)) (or (or ?v_13 ?v_121) ?v_122)) (or (or ?v_94 ?v_31) ?v_20)) (or (or ?v_256 ?v_85) ?v_129)) (or (or ?v_123 ?v_63) ?v_52)) (or (or ?v_205 ?v_124) ?v_45)) (or (or ?v_125 ?v_52) P9)) (or (or ?v_166 ?v_126) ?v_127)) (or (or ?v_63 ?v_71) ?v_84)) (or (or ?v_94 ?v_48) ?v_128)) (or (or ?v_180 ?v_129) ?v_219)) (or (or ?v_62 ?v_37) P5)) (or (or ?v_25 ?v_131) ?v_132)) (or (or ?v_133 ?v_134) ?v_135)) (or (or ?v_136 ?v_137) ?v_192)) (or (or ?v_138 P34) ?v_122)) (or (or ?v_10 ?v_68) ?v_23)) (or (or ?v_139 P39) ?v_52)) (or (or ?v_249 ?v_14) ?v_140)) (or (or ?v_153 ?v_248) ?v_6)) (or (or ?v_66 ?v_82) P33)) (or (or ?v_141 ?v_72) ?v_25)) (or (or ?v_175 ?v_34) P3)) (or (or ?v_142 P34) ?v_81)) (or (or P44 ?v_7) ?v_143)) (or (or ?v_138 P36) ?v_39)) (or (or ?v_127 ?v_144) ?v_145)) (or (or ?v_146 ?v_12) ?v_99)) (or (or ?v_190 ?v_147) ?v_148)) (or (or ?v_149 ?v_150) P1)) (or (or ?v_46 ?v_151) ?v_1)) (or (or P18 ?v_152) ?v_246)) (or (or ?v_69 ?v_154) ?v_155)) (or (or ?v_200 ?v_191) ?v_156)) (or (or ?v_157 ?v_158) ?v_65)) (or (or P12 ?v_159) P35)) (or (or ?v_194 ?v_160) ?v_18)) (or (or ?v_8 ?v_161) ?v_221)) (or (or P47 ?v_39) ?v_52)) (or (or ?v_114 ?v_75) ?v_52)) (or (or ?v_50 ?v_162) P22)) (or (or P3 ?v_25) ?v_163)) (or (or ?v_148 ?v_110) ?v_122)) (or (or ?v_164 P28) ?v_157)) (or (or ?v_21 P23) P18)) (or (or P40 ?v_165) ?v_43)) (or (or ?v_220 ?v_7) ?v_170)) (or (or ?v_15 ?v_32) ?v_3)) (or (or ?v_1 ?v_167) P24)) (or (or ?v_168 ?v_169) ?v_167)) (or (or ?v_60 ?v_47) ?v_179)) (or (or P18 ?v_4) P15)) (or (or ?v_16 ?v_237) ?v_85)) (or (or ?v_170 ?v_157) ?v_12)) (or (or P20 ?v_140) ?v_54)) (or (or ?v_171 P32) P13)) (or (or ?v_172 ?v_71) ?v_70)) (or (or ?v_217 ?v_173) ?v_208)) (or (or ?v_75 ?v_154) ?v_174)) (or (or ?v_175 ?v_119) ?v_176)) (or (or ?v_177 P44) ?v_178)) (or (or P43 P16) P44)) (or (or ?v_44 ?v_116) P0)) (or (or ?v_179 ?v_16) ?v_204)) (or (or ?v_181 ?v_58) ?v_224)) (or (or ?v_242 ?v_183) ?v_162)) (or (or ?v_21 ?v_184) ?v_121)) (or (or P19 ?v_22) ?v_185)) (or (or ?v_115 ?v_41) ?v_92)) (or (or ?v_151 ?v_186) ?v_46)) (or (or ?v_168 ?v_10) ?v_187)) (or (or ?v_119 ?v_110) ?v_136)) (or (or ?v_32 ?v_146) ?v_149)) (or (or ?v_86 ?v_188) ?v_189)) (or (or P7 ?v_190) ?v_112)) (or (or ?v_108 ?v_73) P37)) (or (or ?v_124 P20) ?v_206)) (or (or ?v_68 ?v_27) ?v_191)) (or (or ?v_11 P22) ?v_192)) (or (or P9 ?v_177) ?v_118)) (or (or P5 ?v_176) ?v_193)) (or (or ?v_52 ?v_194) ?v_167)) (or (or ?v_195 P3) ?v_95)) (or (or ?v_196 ?v_168) ?v_127)) (or (or ?v_36 ?v_78) ?v_131)) (or (or ?v_170 ?v_232) ?v_76)) (or (or ?v_38 P37) ?v_11)) (or (or ?v_222 P41) ?v_83)) (or (or ?v_197 P14) ?v_30)) (or (or ?v_12 ?v_159) ?v_97)) (or (or ?v_55 P10) ?v_190)) (or (or ?v_198 ?v_199) ?v_104)) (or (or P31 ?v_190) ?v_84)) (or (or ?v_83 ?v_200) ?v_79)) (or (or ?v_104 ?v_190) P7)) (or (or ?v_170 ?v_103) ?v_188)) (or (or ?v_252 P42) P8)) (or (or ?v_136 ?v_117) ?v_79)) (or (or ?v_213 ?v_146) ?v_201)) (or (or P22 P42) ?v_202)) (or (or ?v_203 ?v_37) ?v_43)) (or (or ?v_172 P43) (not P20))) (or (or ?v_61 ?v_128) ?v_187)) (or (or ?v_29 P43) ?v_113)) (or (or P28 ?v_204) ?v_205)) (or (or ?v_137 ?v_20) ?v_187)) (or (or ?v_128 ?v_112) ?v_177)) (or (or ?v_206 P24) ?v_207)) (or (or ?v_140 ?v_10) ?v_196)) (or (or P32 ?v_150) ?v_157)) (or (or P30 ?v_62) ?v_208)) (or (or ?v_64 ?v_171) P34)) (or (or ?v_92 ?v_203) ?v_209)) (or (or ?v_122 ?v_87) ?v_96)) (or (or ?v_89 ?v_182) ?v_173)) (or (or ?v_164 ?v_134) ?v_184)) (or (or ?v_115 ?v_210) ?v_258)) (or (or P39 P2) ?v_5)) (or (or ?v_135 ?v_57) ?v_170)) (or (or ?v_148 ?v_10) ?v_211)) (or (or P33 ?v_53) ?v_190)) (or (or P30 ?v_64) P13)) (or (or ?v_119 ?v_101) P20)) (or (or ?v_212 P33) ?v_85)) (or (or ?v_33 P23) ?v_206)) (or (or ?v_213 ?v_163) P42)) (or (or ?v_189 ?v_129) ?v_243)) (or (or ?v_31 ?v_185) ?v_209)) (or (or ?v_5 P27) ?v_150)) (or (or ?v_35 ?v_107) ?v_205)) (or (or ?v_110 ?v_160) ?v_121)) (or (or ?v_46 ?v_14) ?v_214)) (or (or P30 P12) ?v_11)) (or (or ?v_49 ?v_9) ?v_159)) (or (or ?v_86 ?v_73) ?v_121)) (or (or ?v_116 ?v_174) P42)) (or (or ?v_140 ?v_53) ?v_75)) (or (or ?v_109 ?v_53) ?v_73)) (or (or ?v_206 ?v_154) ?v_152)) (or (or ?v_97 ?v_147) ?v_151)) (or (or ?v_186 ?v_57) P17)) (or (or ?v_85 ?v_58) ?v_37)) (or (or ?v_96 P15) ?v_68)) (or (or ?v_147 ?v_61) ?v_207)) (or (or ?v_215 ?v_56) ?v_49)) (or (or ?v_186 P25) ?v_204)) (or (or ?v_216 P43) ?v_136)) (or (or P31 P3) ?v_67)) (or (or ?v_187 P18) ?v_68)) (or (or ?v_217 P39) ?v_75)) (or (or ?v_85 ?v_33) P40)) (or (or ?v_218 ?v_219) ?v_16)) (or (or ?v_220 P17) ?v_104)) (or (or ?v_221 ?v_67) ?v_89)) (or (or ?v_222 ?v_33) ?v_110)) (or (or ?v_109 ?v_47) ?v_187)) (or (or ?v_127 ?v_219) ?v_131)) (or (or ?v_65 ?v_150) ?v_37)) (or (or ?v_1 ?v_181) ?v_72)) (or (or ?v_99 ?v_111) ?v_217)) (or (or ?v_221 ?v_167) ?v_3)) (or (or ?v_223 ?v_115) P9)) (or (or ?v_166 P1) ?v_156)) (or (or ?v_98 ?v_224) ?v_23)) (or (or P38 ?v_60) ?v_225)) (or (or ?v_68 ?v_126) P44)) (or (or P11 ?v_192) P39)) (or (or ?v_77 ?v_204) ?v_159)) (or (or ?v_189 ?v_226) ?v_53)) (or (or ?v_171 ?v_124) ?v_176)) (or (or P41 ?v_18) P5)) (or (or ?v_238 ?v_141) ?v_122)) (or (or P32 ?v_4) ?v_122)) (or (or P35 ?v_122) ?v_201)) (or (or ?v_97 ?v_226) ?v_210)) (or (or ?v_10 ?v_227) ?v_19)) (or (or ?v_171 ?v_152) ?v_51)) (or (or ?v_240 ?v_48) ?v_22)) (or (or ?v_136 P21) ?v_80)) (or (or P49 P28) ?v_77)) (or (or P6 ?v_214) ?v_11)) (or (or ?v_14 ?v_117) ?v_212)) (or (or ?v_90 ?v_228) ?v_87)) (or (or P1 ?v_63) ?v_8)) (or (or ?v_154 ?v_194) ?v_179)) (or (or P11 ?v_199) ?v_13)) (or (or ?v_228 ?v_84) ?v_169)) (or (or ?v_138 P19) ?v_229)) (or (or ?v_213 ?v_103) ?v_172)) (or (or ?v_30 ?v_40) ?v_230)) (or (or ?v_82 P1) ?v_183)) (or (or P2 P31) ?v_163)) (or (or ?v_63 ?v_244) ?v_171)) (or (or ?v_176 ?v_73) ?v_229)) (or (or ?v_231 ?v_149) ?v_232)) (or (or ?v_233 ?v_191) ?v_161)) (or (or ?v_128 ?v_187) ?v_184)) (or (or P1 ?v_15) ?v_232)) (or (or ?v_190 ?v_168) P31)) (or (or ?v_192 ?v_234) ?v_204)) (or (or ?v_70 ?v_208) P32)) (or (or P4 ?v_101) P36)) (or (or ?v_157 ?v_178) P9)) (or (or P43 ?v_113) ?v_30)) (or (or ?v_37 ?v_55) ?v_9)) (or (or P1 ?v_217) ?v_22)) (or (or ?v_144 P40) ?v_49)) (or (or ?v_235 ?v_23) ?v_34)) (or (or ?v_236 ?v_72) ?v_76)) (or (or ?v_253 ?v_112) ?v_87)) (or (or ?v_53 ?v_234) ?v_122)) (or (or ?v_26 ?v_60) ?v_232)) (or (or ?v_231 ?v_224) ?v_237)) (or (or P45 ?v_145) ?v_231)) (or (or ?v_69 ?v_73) ?v_16)) (or (or ?v_112 ?v_142) ?v_26)) (or (or P23 ?v_180) ?v_238)) (or (or P43 ?v_239) ?v_230)) (or (or ?v_57 ?v_180) ?v_75)) (or (or P19 ?v_148) ?v_157)) (or (or P42 P40) ?v_41)) (or (or P11 ?v_37) ?v_139)) (or (or P26 ?v_173) ?v_217)) (or (or ?v_3 ?v_187) ?v_60)) (or (or P9 ?v_119) ?v_23)) (or (or ?v_78 ?v_151) ?v_105)) (or (or ?v_186 ?v_54) ?v_185)) (or (or P25 ?v_178) ?v_180)) (or (or ?v_219 ?v_203) ?v_188)) (or (or ?v_240 ?v_185) ?v_196)) (or (or ?v_41 ?v_185) ?v_69)) (or (or ?v_172 ?v_241) ?v_215)) (or (or ?v_230 ?v_221) ?v_233)) (or (or ?v_112 ?v_216) ?v_237)) (or (or P10 ?v_147) ?v_242)) (or (or ?v_175 ?v_174) ?v_12)) (or (or P14 ?v_16) ?v_82)) (or (or ?v_190 P13) ?v_176)) (or (or P40 ?v_27) ?v_121)) (or (or ?v_28 ?v_139) ?v_212)) (or (or ?v_141 ?v_195) ?v_208)) (or ?v_257 P46)) (or (or ?v_241 ?v_173) ?v_74)) (or (or ?v_101 ?v_127) ?v_201)) (or (or P36 P32) ?v_203)) (or (or ?v_86 ?v_164) ?v_194)) (or (or ?v_69 ?v_70) P6)) (or (or ?v_65 P21) ?v_138)) (or (or ?v_219 ?v_57) ?v_42)) (or (or ?v_98 P40) ?v_216)) (or (or ?v_243 ?v_170) ?v_230)) (or (or ?v_28 ?v_119) ?v_52)) (or (or ?v_238 ?v_54) ?v_209)) (or (or ?v_112 ?v_46) ?v_20)) (or (or ?v_109 ?v_214) ?v_129)) (or (or ?v_43 ?v_89) P47)) (or (or ?v_198 ?v_219) ?v_140)) (or (or ?v_86 ?v_235) ?v_231)) (or (or ?v_146 ?v_211) ?v_145)) (or (or ?v_234 ?v_157) P38)) (or (or P48 P49) ?v_172)) (or (or ?v_136 ?v_229) ?v_191)) (or (or ?v_127 ?v_153) ?v_173)) (or (or ?v_235 ?v_244) ?v_86)) (or (or ?v_189 P7) ?v_101)) (or (or ?v_188 ?v_92) ?v_148)) (or (or ?v_44 ?v_244) ?v_222)) (or (or ?v_40 ?v_116) ?v_8)) (or (or P31 ?v_111) ?v_245)) (or (or ?v_212 ?v_54) ?v_15)) (or (or ?v_129 ?v_246) ?v_157)) (or (or ?v_87 ?v_227) ?v_11)) (or (or ?v_247 ?v_107) ?v_146)) (or (or ?v_135 ?v_66) ?v_129)) (or (or ?v_238 ?v_33) ?v_55)) (or (or ?v_223 ?v_186) ?v_169)) (or (or ?v_192 ?v_14) ?v_209)) (or (or ?v_20 ?v_204) ?v_9)) (or (or ?v_105 ?v_195) ?v_208)) (or (or P13 P25) ?v_231)) (or (or ?v_223 ?v_164) ?v_206)) (or (or ?v_1 ?v_207) ?v_236)) (or (or ?v_248 P31) P22)) (or (or ?v_131 ?v_52) ?v_16)) (or (or ?v_211 ?v_150) P33)) (or (or ?v_192 ?v_175) ?v_213)) (or (or ?v_121 ?v_134) ?v_195)) (or (or ?v_230 ?v_141) ?v_199)) (or (or ?v_152 ?v_107) ?v_110)) (or (or ?v_209 ?v_116) ?v_223)) (or (or ?v_224 ?v_191) P25)) (or (or ?v_39 P25) ?v_103)) (or (or P34 P15) ?v_6)) (or (or ?v_28 ?v_18) ?v_249)) (or (or ?v_97 P48) ?v_127)) (or (or P10 ?v_88) P40)) (or (or ?v_63 P32) P21)) (or (or ?v_171 ?v_28) P48)) (or (or ?v_153 ?v_77) ?v_41)) (or (or P24 ?v_103) ?v_169)) (or (or P41 ?v_224) ?v_70)) (or (or P6 ?v_230) ?v_76)) (or (or ?v_52 P25) ?v_70)) (or (or ?v_161 ?v_10) ?v_72)) (or (or ?v_175 ?v_195) ?v_239)) (or (or P38 ?v_76) P32)) (or (or P19 ?v_82) ?v_60)) (or (or ?v_245 P43) P7)) (or (or ?v_65 ?v_221) ?v_202)) (or (or ?v_35 P13) P25)) (or (or ?v_144 ?v_64) P29)) (or (or ?v_29 ?v_187) ?v_42)) (or (or P18 ?v_230) ?v_166)) (or (or ?v_94 ?v_144) ?v_105)) (or (or ?v_22 ?v_114) ?v_76)) (or (or ?v_209 ?v_30) ?v_20)) (or (or ?v_118 ?v_73) ?v_4)) (or (or ?v_6 ?v_250) P36)) (or (or ?v_215 ?v_175) ?v_211)) (or (or ?v_180 ?v_3) ?v_157)) (or (or ?v_3 P6) ?v_21)) (or (or ?v_20 ?v_218) ?v_251)) (or (or ?v_36 ?v_15) ?v_170)) (or (or ?v_167 ?v_42) ?v_190)) (or (or ?v_42 ?v_68) ?v_151)) (or (or ?v_240 ?v_204) ?v_155)) (or (or ?v_128 ?v_76) ?v_117)) (or (or ?v_25 ?v_69) ?v_124)) (or (or ?v_239 P40) P21)) (or (or P20 P5) ?v_52)) (or (or ?v_6 ?v_242) ?v_112)) (or (or P19 ?v_63) ?v_77)) (or (or ?v_195 ?v_57) ?v_15)) (or (or ?v_69 P17) ?v_210)) (or (or ?v_85 ?v_204) ?v_200)) (or (or ?v_221 ?v_179) ?v_252)) (or (or P43 ?v_87) ?v_196)) (or (or ?v_126 ?v_60) ?v_253)) (or (or ?v_12 ?v_195) ?v_144)) (or (or ?v_87 ?v_27) ?v_96)) (or (or ?v_40 ?v_132) ?v_83)) (or (or ?v_88 ?v_244) ?v_234)) (or (or ?v_163 ?v_64) ?v_21)) (or (or ?v_148 ?v_58) ?v_158)) (or (or ?v_223 ?v_226) ?v_200)) (or (or ?v_68 ?v_137) ?v_125)) (or (or ?v_137 ?v_209) ?v_46)) (or (or ?v_8 ?v_4) ?v_226)) (or (or ?v_232 ?v_48) P14)) (or (or ?v_176 ?v_58) P5)) (or (or P30 ?v_212) ?v_154)) (or (or ?v_220 P48) ?v_252)) (or (or ?v_12 ?v_250) P47)) (or (or ?v_41 ?v_133) ?v_192)) (or (or ?v_165 ?v_254) P42)) (or (or ?v_255 ?v_203) ?v_238)) (or (or ?v_2 ?v_110) ?v_256)) (or (or ?v_217 ?v_105) ?v_37)) (or (or ?v_193 ?v_44) ?v_119)) (or (or P31 P44) P8)) (or (or ?v_8 ?v_9) ?v_46)) (or (or ?v_229 ?v_36) ?v_141)) (or (or P13 ?v_29) ?v_64)) (or (or ?v_151 ?v_14) ?v_220)) (or (or ?v_154 ?v_44) ?v_78)) (or (or ?v_242 ?v_74) ?v_88)) (or (or ?v_179 ?v_239) P41)) (or (or ?v_96 ?v_29) ?v_162)) (or (or P48 ?v_92) ?v_175)) (or (or ?v_137 ?v_253) P38)) (or ?v_257 ?v_74)) (or (or ?v_25 ?v_121) ?v_151)) (or (or ?v_28 ?v_94) ?v_238)) (or (or ?v_22 ?v_87) P24)) (or (or ?v_5 ?v_119) ?v_109)) (or (or ?v_21 ?v_38) P7)) (or (or ?v_242 ?v_16) ?v_111)) (or (or ?v_52 ?v_28) ?v_147)) (or (or ?v_152 ?v_105) ?v_45)) (or (or P25 ?v_135) ?v_240)) (or (or ?v_44 ?v_235) ?v_8)) (or (or ?v_246 ?v_68) ?v_13)) (or (or ?v_143 ?v_34) ?v_58)) (or (or ?v_204 ?v_101) ?v_170)) (or (or ?v_85 P18) ?v_161)) (or (or ?v_195 ?v_224) ?v_9)) (or (or ?v_127 ?v_233) ?v_255)) (or (or P5 ?v_21) ?v_7)) (or (or P46 P26) ?v_40)) (or (or ?v_198 ?v_118) ?v_5)) (or (or P34 ?v_73) ?v_179)) (or (or ?v_72 ?v_234) P38)) (or (or ?v_31 ?v_203) ?v_194)) (or (or P28 ?v_2) ?v_187)) (or (or P38 ?v_9) ?v_61)) (or (or ?v_156 ?v_54) ?v_49)) (or (or ?v_121 ?v_254) ?v_87)) (or (or ?v_170 ?v_159) ?v_202)) (or (or P1 ?v_177) P13)) (or (or ?v_170 ?v_3) ?v_77)) (or (or ?v_234 ?v_177) ?v_108)) (or (or ?v_186 ?v_236) ?v_33)) (or (or ?v_189 ?v_141) ?v_125)) (or (or ?v_159 P15) ?v_125)) (or (or P17 ?v_256) ?v_210)) (or (or ?v_258 P27) ?v_170)) (or (or ?v_21 ?v_62) ?v_82)) (or (or P26 ?v_219) ?v_90)) (or (or ?v_219 ?v_132) ?v_34)) (or (or ?v_86 P42) P20)) (or (or P13 ?v_86) ?v_165)) (or (or P18 P18) ?v_126)) (or (or ?v_88 ?v_65) ?v_223)) (or (or ?v_208 ?v_115) ?v_120)) (or (or ?v_127 P36) ?v_36)) (or (or ?v_33 ?v_254) ?v_196)) (or (or ?v_166 ?v_23) ?v_239)) (or (or ?v_224 ?v_122) P34)) (or (or ?v_185 ?v_7) P43)) (or (or ?v_219 ?v_202) ?v_156)) (or (or ?v_192 P30) ?v_206)) (or (or ?v_86 ?v_113) ?v_29)) (or (or ?v_105 P12) ?v_81)) (or (or ?v_118 ?v_208) ?v_200)) (or (or ?v_121 ?v_56) P24)) (or (or P11 ?v_233) ?v_66)) (or (or ?v_238 ?v_158) ?v_72)) (or (or ?v_231 P1) ?v_216)) (or (or ?v_50 ?v_180) ?v_156)) (or (or P13 ?v_237) ?v_8)) (or (or ?v_190 ?v_209) ?v_238)) (or (or ?v_46 P46) ?v_70)) (or (or P25 ?v_216) P9)) (or (or ?v_255 ?v_234) ?v_15)) (or (or ?v_238 P44) ?v_149)) (or (or ?v_148 ?v_229) ?v_8)) (or (or P25 ?v_26) ?v_67)) (or (or ?v_238 ?v_31) ?v_83)) (or (or ?v_29 P16) ?v_194)) (or (or ?v_234 ?v_97) ?v_71)) (or (or ?v_55 P45) P41)) (or (or ?v_41 P28) ?v_38)) (or (or ?v_11 ?v_169) ?v_217)) (or (or ?v_233 ?v_127) ?v_64)) (or (or ?v_170 ?v_205) ?v_152)) (or (or ?v_197 P9) P24)) (or (or P48 ?v_68) ?v_104)) (or (or P14 ?v_218) ?v_96)) (or (or ?v_205 ?v_69) ?v_230)) (or (or ?v_74 P25) ?v_171)) (or (or P5 ?v_6) ?v_78)) (or (or ?v_115 P19) ?v_155)) (or (or ?v_101 ?v_244) P20)) (or (or ?v_105 ?v_238) ?v_134)) (or (or ?v_126 ?v_144) ?v_77)) (or (or ?v_250 ?v_253) P24)) (or (or ?v_34 P45) ?v_63)) (or (or ?v_141 ?v_243) ?v_144)) (or (or P25 ?v_16) ?v_8)) (or (or ?v_14 ?v_255) ?v_148)) (or (or ?v_5 ?v_210) ?v_86)) (or (or ?v_72 P29) ?v_252)) (or (or ?v_15 P32) ?v_35)) (or (or ?v_206 ?v_77) ?v_235)) (or (or P33 P8) P29)) (or (or ?v_73 ?v_13) ?v_103)) (or (or ?v_32 ?v_167) ?v_29)) (or (or P35 P33) P28)) (or (or ?v_139 ?v_48) ?v_44)) (or (or ?v_98 ?v_218) ?v_147)) (or (or ?v_226 ?v_18) ?v_35)) (or (or ?v_65 ?v_181) ?v_142)) (or (or ?v_169 ?v_82) ?v_43)) (or (or ?v_109 ?v_152) ?v_129)) (or (or ?v_225 ?v_256) ?v_109)) (or (or ?v_200 ?v_155) ?v_81)) (or (or ?v_161 ?v_175) P44))))))))))))))))))))))))))))))))))))))))
(check-sat)
(exit)
